<number of tasks>
100

<cycle time>
1000

<order strength>
0.197


<task times>
1 439
2 474
3 664
4 442
5 549
6 486
7 684
8 847
9 445
10 635
11 378
12 414
13 400
14 343
15 607
16 306
17 606
18 541
19 768
20 316
21 479
22 393
23 555
24 350
25 491
26 583
27 576
28 530
29 424
30 483
31 403
32 602
33 563
34 422
35 481
36 220
37 557
38 489
39 384
40 591
41 497
42 444
43 429
44 293
45 597
46 538
47 308
48 488
49 530
50 558
51 676
52 372
53 229
54 714
55 458
56 570
57 582
58 592
59 466
60 507
61 528
62 681
63 456
64 374
65 497
66 503
67 384
68 421
69 575
70 488
71 523
72 409
73 338
74 657
75 476
76 661
77 599
78 424
79 406
80 492
81 509
82 527
83 407
84 492
85 546
86 471
87 751
88 305
89 414
90 332
91 501
92 378
93 585
94 503
95 164
96 448
97 405
98 574
99 364
100 570

<precedence relations>
1,9
2,13
3,10
3,12
4,11
4,14
5,39
7,16
8,15
8,17
8,44
9,22
10,18
11,19
12,20
13,21
15,24
16,23
18,26
19,28
20,27
21,29
22,25
22,30
23,31
23,32
24,33
25,35
26,36
27,37
28,38
29,39
29,42
33,34
33,40
33,41
34,70
35,43
36,47
37,48
38,49
39,44
39,51
39,69
41,45
41,46
42,50
43,78
44,78
45,70
46,70
47,54
48,55
49,56
50,52
50,53
50,58
50,59
50,60
51,57
52,78
53,70
54,61
55,61
56,65
57,62
57,63
57,64
57,67
60,66
60,68
61,78
62,78
63,70
64,70
65,72
65,75
65,76
66,69
66,74
67,77
67,95
68,71
68,73
69,78
70,79
70,80
70,81
70,82
70,83
70,84
70,85
70,86
70,87
72,88
78,89
78,90
78,91
78,92
78,93
78,94
81,96
82,95
88,97
94,99
95,98
95,99
95,100

<end>
